WARNING: for repeatability, setting FPU to use double precision
============================[ Problem Statistics ]=============================
|                                                                             |
|  Number of variables:         27899                                         |
|  Number of clauses:          342250                                         |
|  Parse time:                   0.15 s                                       |
|  Eliminated clauses:           0.02 Mb                                      |
|  Simplification time:          0.18 s                                       |
|                                                                             |
============================[ Search Statistics ]==============================
| Conflicts |          ORIGINAL         |          LEARNT          | Progress |
|           |    Vars  Clauses Literals |    Limit  Clauses Lit/Cl |          |
===============================================================================
|       100 |    3217    38585   109538 |    14147      100     12 | 83.723 % |
|       250 |    3217    38585   109538 |    15562      250     19 | 83.723 % |
|       475 |    3217    38585   109538 |    17118      475     22 | 83.723 % |
|       812 |    3217    38585   109538 |    18830      812     24 | 83.723 % |
===============================================================================
restarts              : 7
conflicts             : 1130           (3239 /sec)
decisions             : 10180          (0.00 % random) (29178 /sec)
propagations          : 88915          (254853 /sec)
conflict literals     : 55899          (4.16 % deleted)
Memory used           : 44.00 MB
CPU time              : 0.348888 s

SATISFIABLE
WARNING: for repeatability, setting FPU to use double precision
============================[ Problem Statistics ]=============================
|                                                                             |
|  Number of variables:         27899                                         |
|  Number of clauses:          342250                                         |
|  Parse time:                   0.10 s                                       |
|  Eliminated clauses:           0.02 Mb                                      |
|  Simplification time:          0.12 s                                       |
|                                                                             |
============================[ Search Statistics ]==============================
| Conflicts |          ORIGINAL         |          LEARNT          | Progress |
|           |    Vars  Clauses Literals |    Limit  Clauses Lit/Cl |          |
===============================================================================
|       100 |    3217    38585   109538 |    14147      100     12 | 83.723 % |
|       250 |    3217    38585   109538 |    15562      250     19 | 83.723 % |
|       475 |    3217    38585   109538 |    17118      475     22 | 83.723 % |
|       812 |    3217    38585   109538 |    18830      812     24 | 83.723 % |
===============================================================================
restarts              : 7
conflicts             : 1130           (4840 /sec)
decisions             : 10180          (0.00 % random) (43601 /sec)
propagations          : 88915          (380822 /sec)
conflict literals     : 55899          (4.16 % deleted)
Memory used           : 44.00 MB
CPU time              : 0.233482 s

SATISFIABLE
